20 43
1 2 3
1 3 4
1 4 4
1 5 5
2 3 4
2 4 1
2 5 2
3 4 5
3 5 3
4 5 1
5 6 1
6 7 5
6 8 5
6 9 5
6 10 1
7 8 3
7 9 5
7 10 5
8 9 3
8 10 5
9 10 5
10 11 3
11 12 4
11 13 2
11 14 5
11 15 3
12 13 4
12 14 3
12 15 2
13 14 1
13 15 4
14 15 2
15 16 1
16 17 3
16 18 1
16 19 3
16 20 4
17 18 4
17 19 5
17 20 5
18 19 4
18 20 4
19 20 2
